p edge 700 1800
e 1 257
e 1 258
e 1 389
e 1 390
e 1 529
e 1 530
e 1 282
e 1 409
e 1 410
e 1 673
e 1 674
e 1 293
e 1 294
e 1 433
e 1 434
e 1 593
e 1 594
e 1 281
e 1 365
e 1 366
e 1 625
e 1 626
e 2 259
e 2 260
e 2 391
e 2 392
e 2 531
e 2 532
e 2 283
e 2 284
e 2 411
e 2 675
e 2 676
e 2 295
e 2 296
e 2 435
e 2 436
e 2 412
e 2 595
e 2 596
e 2 367
e 2 368
e 2 627
e 2 628
e 3 521
e 3 522
e 3 269
e 3 270
e 3 157
e 3 158
e 3 545
e 3 546
e 3 677
e 3 678
e 3 309
e 3 310
e 3 457
e 3 458
e 3 589
e 3 590
e 3 613
e 3 477
e 3 478
e 3 614
e 3 101
e 3 102
e 3 245
e 3 246
e 3 381
e 3 382
e 4 523
e 4 524
e 4 271
e 4 272
e 4 159
e 4 160
e 4 547
e 4 548
e 4 679
e 4 680
e 4 311
e 4 312
e 4 459
e 4 460
e 4 591
e 4 592
e 4 479
e 4 480
e 4 615
e 4 103
e 4 104
e 4 616
e 4 247
e 4 248
e 4 383
e 4 384
e 5 449
e 5 450
e 5 261
e 5 262
e 5 649
e 5 650
e 5 333
e 5 334
e 5 581
e 5 437
e 5 438
e 5 569
e 5 570
e 5 582
e 6 451
e 6 452
e 6 652
e 6 583
e 6 263
e 6 264
e 6 651
e 6 584
e 6 335
e 6 336
e 6 439
e 6 440
e 6 571
e 6 572
e 7 133
e 7 134
e 7 263
e 7 137
e 7 138
e 7 401
e 7 402
e 7 149
e 7 150
e 7 261
e 7 421
e 7 422
e 7 553
e 7 554
e 7 685
e 7 686
e 7 441
e 7 442
e 7 321
e 7 322
e 7 337
e 7 338
e 7 469
e 7 470
e 7 489
e 7 490
e 8 556
e 8 262
e 8 135
e 8 264
e 8 139
e 8 140
e 8 403
e 8 404
e 8 151
e 8 152
e 8 423
e 8 424
e 8 555
e 8 136
e 8 687
e 8 688
e 8 443
e 8 444
e 8 323
e 8 324
e 8 339
e 8 340
e 8 471
e 8 472
e 8 491
e 8 492
e 9 673
e 9 669
e 9 517
e 9 518
e 9 583
e 9 233
e 9 234
e 9 459
e 9 675
e 9 670
e 9 593
e 9 457
e 9 595
e 9 693
e 9 694
e 9 581
e 9 317
e 9 318
e 10 676
e 10 674
e 10 460
e 10 582
e 10 519
e 10 520
e 10 458
e 10 235
e 10 236
e 10 594
e 10 596
e 10 584
e 10 671
e 10 695
e 10 696
e 10 672
e 10 319
e 10 320
e 11 513
e 11 514
e 11 642
e 11 169
e 11 170
e 11 333
e 11 501
e 11 335
e 11 629
e 11 305
e 11 306
e 11 531
e 11 341
e 11 342
e 11 529
e 11 121
e 11 122
e 11 641
e 11 630
e 11 502
e 12 515
e 12 516
e 12 503
e 12 504
e 12 171
e 12 172
e 12 643
e 12 334
e 12 336
e 12 532
e 12 530
e 12 307
e 12 308
e 12 644
e 12 343
e 12 344
e 12 631
e 12 632
e 12 123
e 12 124
e 13 261
e 13 391
e 13 264
e 13 389
e 13 461
e 13 462
e 13 601
e 13 602
e 13 377
e 13 378
e 13 285
e 13 286
e 14 604
e 14 262
e 14 263
e 14 392
e 14 390
e 14 463
e 14 464
e 14 379
e 14 380
e 14 603
e 14 287
e 14 288
e 15 137
e 15 139
e 15 273
e 15 274
e 15 649
e 15 181
e 15 182
e 15 445
e 15 446
e 15 193
e 15 194
e 15 651
e 15 209
e 15 210
e 15 596
e 15 593
e 15 233
e 15 235
e 15 109
e 15 110
e 15 241
e 15 242
e 15 509
e 15 510
e 16 138
e 16 140
e 16 275
e 16 276
e 16 650
e 16 183
e 16 184
e 16 447
e 16 448
e 16 195
e 16 196
e 16 594
e 16 211
e 16 212
e 16 652
e 16 234
e 16 236
e 16 595
e 16 111
e 16 112
e 16 243
e 16 244
e 16 511
e 16 512
e 17 229
e 17 230
e 17 537
e 17 538
e 17 637
e 17 638
e 18 231
e 18 232
e 18 539
e 18 540
e 18 639
e 18 640
e 19 429
e 19 430
e 19 661
e 19 662
e 19 157
e 19 159
e 19 161
e 19 162
e 19 669
e 19 173
e 19 174
e 19 671
e 19 481
e 19 325
e 19 326
e 19 482
e 19 201
e 19 202
e 19 341
e 19 343
e 19 225
e 19 226
e 19 101
e 19 103
e 19 125
e 19 381
e 19 126
e 19 383
e 20 670
e 20 431
e 20 663
e 20 664
e 20 176
e 20 158
e 20 160
e 20 163
e 20 164
e 20 175
e 20 432
e 20 672
e 20 327
e 20 328
e 20 203
e 20 204
e 20 483
e 20 484
e 20 342
e 20 344
e 20 227
e 20 228
e 20 102
e 20 104
e 20 128
e 20 382
e 20 127
e 20 384
e 21 609
e 21 610
e 21 643
e 21 695
e 21 653
e 21 654
e 21 689
e 21 690
e 21 245
e 21 247
e 21 693
e 21 641
e 21 253
e 21 254
e 22 642
e 22 611
e 22 612
e 22 692
e 22 696
e 22 655
e 22 656
e 22 694
e 22 691
e 22 644
e 22 246
e 22 248
e 22 255
e 22 256
e 23 265
e 23 266
e 23 145
e 23 146
e 23 537
e 23 539
e 23 413
e 23 414
e 23 289
e 23 290
e 23 685
e 23 687
e 23 193
e 23 417
e 23 195
e 23 418
e 23 469
e 23 471
e 23 485
e 23 229
e 23 486
e 23 231
e 23 105
e 23 106
e 23 633
e 23 634
e 23 509
e 23 511
e 24 108
e 24 267
e 24 268
e 24 147
e 24 148
e 24 538
e 24 540
e 24 415
e 24 416
e 24 291
e 24 292
e 24 686
e 24 688
e 24 194
e 24 196
e 24 419
e 24 420
e 24 470
e 24 472
e 24 230
e 24 487
e 24 488
e 24 107
e 24 232
e 24 635
e 24 636
e 24 510
e 24 512
e 25 645
e 25 646
e 25 405
e 25 406
e 25 289
e 25 291
e 25 301
e 25 302
e 25 561
e 25 562
e 25 313
e 25 314
e 25 461
e 25 463
e 25 233
e 25 362
e 25 236
e 25 109
e 25 111
e 25 361
e 25 125
e 25 127
e 26 647
e 26 648
e 26 407
e 26 408
e 26 290
e 26 292
e 26 303
e 26 304
e 26 563
e 26 564
e 26 315
e 26 316
e 26 462
e 26 464
e 26 234
e 26 235
e 26 364
e 26 126
e 26 110
e 26 112
e 26 363
e 26 128
e 27 385
e 27 386
e 27 137
e 27 203
e 27 140
e 27 113
e 27 114
e 27 437
e 27 439
e 27 249
e 27 250
e 27 201
e 28 387
e 28 388
e 28 440
e 28 138
e 28 139
e 28 204
e 28 115
e 28 116
e 28 438
e 28 202
e 28 251
e 28 252
e 29 133
e 29 550
e 29 135
e 29 541
e 29 365
e 29 367
e 29 549
e 29 317
e 29 542
e 29 319
e 30 134
e 30 551
e 30 136
e 30 552
e 30 366
e 30 368
e 30 544
e 30 318
e 30 543
e 30 320
e 31 577
e 31 578
e 31 357
e 31 358
e 31 521
e 31 523
e 31 429
e 31 431
e 31 117
e 31 118
e 31 503
e 31 501
e 32 579
e 32 524
e 32 359
e 32 360
e 32 522
e 32 504
e 32 430
e 32 432
e 32 580
e 32 502
e 32 119
e 32 120
e 33 161
e 33 689
e 33 163
e 33 329
e 33 330
e 33 429
e 33 691
e 33 432
e 33 625
e 33 627
e 34 162
e 34 164
e 34 690
e 34 331
e 34 332
e 34 430
e 34 431
e 34 626
e 34 628
e 34 692
e 35 129
e 35 130
e 35 515
e 35 133
e 35 615
e 35 295
e 35 136
e 35 681
e 35 682
e 35 397
e 35 398
e 35 433
e 35 613
e 35 435
e 35 513
e 35 281
e 35 293
e 35 283
e 36 514
e 36 131
e 36 132
e 36 134
e 36 135
e 36 296
e 36 683
e 36 616
e 36 614
e 36 399
e 36 400
e 36 516
e 36 434
e 36 436
e 36 282
e 36 684
e 36 284
e 36 294
e 37 265
e 37 493
e 37 267
e 37 205
e 37 206
e 37 494
e 37 113
e 37 115
e 37 637
e 37 639
e 38 266
e 38 268
e 38 207
e 38 208
e 38 114
e 38 116
e 38 495
e 38 496
e 38 638
e 38 640
e 39 433
e 39 618
e 39 425
e 39 426
e 39 337
e 39 617
e 39 339
e 39 436
e 39 469
e 39 598
e 39 663
e 39 472
e 39 597
e 39 661
e 40 620
e 40 599
e 40 434
e 40 427
e 40 428
e 40 664
e 40 338
e 40 435
e 40 340
e 40 470
e 40 471
e 40 600
e 40 619
e 40 662
e 41 481
e 41 483
e 41 109
e 41 112
e 41 177
e 41 178
e 41 565
e 41 213
e 41 214
e 41 440
e 41 437
e 41 349
e 41 350
e 41 566
e 42 482
e 42 484
e 42 439
e 42 568
e 42 567
e 42 110
e 42 111
e 42 179
e 42 180
e 42 438
e 42 215
e 42 216
e 42 351
e 42 352
e 43 321
e 43 609
e 43 323
e 43 658
e 43 105
e 43 107
e 43 524
e 43 611
e 43 657
e 43 521
e 43 473
e 43 474
e 44 322
e 44 324
e 44 610
e 44 106
e 44 523
e 44 108
e 44 659
e 44 612
e 44 660
e 44 522
e 44 475
e 44 476
e 45 417
e 45 481
e 45 419
e 45 484
e 45 165
e 45 166
e 45 359
e 45 666
e 45 205
e 45 547
e 45 207
e 45 373
e 45 374
e 45 545
e 45 665
e 45 357
e 45 157
e 45 160
e 46 418
e 46 483
e 46 420
e 46 358
e 46 167
e 46 168
e 46 360
e 46 206
e 46 208
e 46 548
e 46 482
e 46 546
e 46 375
e 46 376
e 46 667
e 46 668
e 46 158
e 46 159
e 47 449
e 47 589
e 47 451
e 47 573
e 47 333
e 47 591
e 47 336
e 47 401
e 47 403
e 47 505
e 47 506
e 47 477
e 47 574
e 47 479
e 48 450
e 48 452
e 48 334
e 48 335
e 48 590
e 48 592
e 48 402
e 48 404
e 48 576
e 48 507
e 48 508
e 48 478
e 48 575
e 48 480
e 49 641
e 49 644
e 49 273
e 49 217
e 49 275
e 49 545
e 49 548
e 49 349
e 49 685
e 49 688
e 49 585
e 49 309
e 49 311
e 49 201
e 49 586
e 49 204
e 49 597
e 49 599
e 49 473
e 49 218
e 49 475
e 49 605
e 49 606
e 49 351
e 49 617
e 49 619
e 49 365
e 49 368
e 50 642
e 50 643
e 50 274
e 50 276
e 50 546
e 50 547
e 50 220
e 50 686
e 50 687
e 50 310
e 50 312
e 50 352
e 50 203
e 50 202
e 50 587
e 50 588
e 50 598
e 50 600
e 50 474
e 50 219
e 50 476
e 50 350
e 50 607
e 50 608
e 50 618
e 50 620
e 50 366
e 50 367
e 51 345
e 51 561
e 51 645
e 51 647
e 51 141
e 51 205
e 51 142
e 51 208
e 51 145
e 51 313
e 51 147
e 51 563
e 51 629
e 51 631
e 51 249
e 51 346
e 51 251
e 51 315
e 51 221
e 51 222
e 52 316
e 52 646
e 52 562
e 52 632
e 52 630
e 52 206
e 52 207
e 52 144
e 52 348
e 52 146
e 52 148
e 52 143
e 52 564
e 52 314
e 52 250
e 52 347
e 52 252
e 52 648
e 52 223
e 52 224
e 53 513
e 53 516
e 53 649
e 53 652
e 53 141
e 53 143
e 53 661
e 53 664
e 53 409
e 53 411
e 53 561
e 53 549
e 53 551
e 53 177
e 53 179
e 53 564
e 53 321
e 53 609
e 53 324
e 53 453
e 53 454
e 53 225
e 53 227
e 53 612
e 53 485
e 53 487
e 53 493
e 53 495
e 53 117
e 53 119
e 54 514
e 54 515
e 54 650
e 54 651
e 54 142
e 54 144
e 54 662
e 54 663
e 54 410
e 54 412
e 54 550
e 54 552
e 54 178
e 54 563
e 54 180
e 54 322
e 54 323
e 54 455
e 54 456
e 54 610
e 54 562
e 54 226
e 54 611
e 54 228
e 54 486
e 54 488
e 54 494
e 54 496
e 54 118
e 54 120
e 55 577
e 55 579
e 55 421
e 55 423
e 55 552
e 55 169
e 55 633
e 55 171
e 55 584
e 55 113
e 55 581
e 55 116
e 55 277
e 55 278
e 55 473
e 55 549
e 55 635
e 55 476
e 56 578
e 56 580
e 56 634
e 56 422
e 56 551
e 56 424
e 56 170
e 56 172
e 56 583
e 56 582
e 56 114
e 56 115
e 56 279
e 56 280
e 56 474
e 56 475
e 56 636
e 56 550
e 57 517
e 57 519
e 57 329
e 57 331
e 57 504
e 57 173
e 57 501
e 57 175
e 57 305
e 57 307
e 57 245
e 57 375
e 57 248
e 57 373
e 57 189
e 57 190
e 58 503
e 58 374
e 58 520
e 58 330
e 58 332
e 58 518
e 58 174
e 58 176
e 58 306
e 58 308
e 58 246
e 58 247
e 58 376
e 58 502
e 58 191
e 58 192
e 59 525
e 59 526
e 59 405
e 59 534
e 59 407
e 59 413
e 59 415
e 59 165
e 59 167
e 59 185
e 59 186
e 59 317
e 59 191
e 59 320
e 59 325
e 59 327
e 59 349
e 59 352
e 59 225
e 59 228
e 59 101
e 59 104
e 59 189
e 59 625
e 59 628
e 59 533
e 60 536
e 60 527
e 60 528
e 60 406
e 60 535
e 60 408
e 60 414
e 60 416
e 60 166
e 60 168
e 60 187
e 60 188
e 60 318
e 60 319
e 60 192
e 60 326
e 60 328
e 60 350
e 60 351
e 60 226
e 60 227
e 60 102
e 60 103
e 60 190
e 60 626
e 60 627
e 61 489
e 61 621
e 61 491
e 61 237
e 61 238
e 61 622
e 61 585
e 61 601
e 61 603
e 61 573
e 61 587
e 61 575
e 62 588
e 62 624
e 62 490
e 62 492
e 62 239
e 62 240
e 62 623
e 62 586
e 62 602
e 62 604
e 62 574
e 62 576
e 63 588
e 63 197
e 63 198
e 63 520
e 63 393
e 63 394
e 63 460
e 63 557
e 63 558
e 63 585
e 63 145
e 63 457
e 63 148
e 63 181
e 63 183
e 63 517
e 64 587
e 64 518
e 64 199
e 64 200
e 64 458
e 64 395
e 64 396
e 64 559
e 64 560
e 64 146
e 64 147
e 64 519
e 64 182
e 64 184
e 64 459
e 64 586
e 65 257
e 65 353
e 65 259
e 65 420
e 65 389
e 65 424
e 65 354
e 65 393
e 65 395
e 65 392
e 65 387
e 65 425
e 65 385
e 65 417
e 65 249
e 65 421
e 65 252
e 65 427
e 66 258
e 66 355
e 66 356
e 66 423
e 66 390
e 66 391
e 66 386
e 66 394
e 66 396
e 66 388
e 66 419
e 66 418
e 66 260
e 66 426
e 66 250
e 66 251
e 66 428
e 66 422
e 67 297
e 67 298
e 67 632
e 67 557
e 67 559
e 67 117
e 67 120
e 67 665
e 67 629
e 67 667
e 67 253
e 67 255
e 68 631
e 68 299
e 68 300
e 68 630
e 68 558
e 68 560
e 68 118
e 68 119
e 68 666
e 68 668
e 68 254
e 68 256
e 69 668
e 69 553
e 69 413
e 69 555
e 69 653
e 69 655
e 69 689
e 69 692
e 69 693
e 69 696
e 69 665
e 69 416
e 69 573
e 69 576
e 70 554
e 70 556
e 70 654
e 70 574
e 70 690
e 70 691
e 70 415
e 70 695
e 70 666
e 70 667
e 70 656
e 70 414
e 70 575
e 70 694
e 71 257
e 71 353
e 71 355
e 71 260
e 71 505
e 71 297
e 71 285
e 71 299
e 71 477
e 71 497
e 71 498
e 71 153
e 71 154
e 71 507
e 71 480
e 71 189
e 71 287
e 71 192
e 72 258
e 72 259
e 72 356
e 72 354
e 72 298
e 72 300
e 72 286
e 72 478
e 72 499
e 72 500
e 72 479
e 72 506
e 72 155
e 72 156
e 72 508
e 72 190
e 72 191
e 72 288
e 73 151
e 73 369
e 73 370
e 73 213
e 73 215
e 73 149
e 73 637
e 73 640
e 74 152
e 74 371
e 74 372
e 74 214
e 74 216
e 74 638
e 74 639
e 74 150
e 75 577
e 75 497
e 75 580
e 75 681
e 75 683
e 75 401
e 75 697
e 75 499
e 75 404
e 75 537
e 75 698
e 75 540
e 76 578
e 76 579
e 76 498
e 76 682
e 76 684
e 76 402
e 76 403
e 76 500
e 76 538
e 76 539
e 76 700
e 76 699
e 77 653
e 77 399
e 77 656
e 77 657
e 77 659
e 77 669
e 77 672
e 77 673
e 77 676
e 77 301
e 77 303
e 77 565
e 77 567
e 77 397
e 77 353
e 77 356
e 77 361
e 77 363
e 77 492
e 77 489
e 77 373
e 77 376
e 77 121
e 77 123
e 78 654
e 78 655
e 78 400
e 78 658
e 78 660
e 78 670
e 78 671
e 78 674
e 78 675
e 78 302
e 78 304
e 78 566
e 78 568
e 78 398
e 78 354
e 78 355
e 78 362
e 78 491
e 78 364
e 78 374
e 78 375
e 78 490
e 78 122
e 78 124
e 79 161
e 79 164
e 79 645
e 79 648
e 79 105
e 79 269
e 79 108
e 79 141
e 79 271
e 79 144
e 79 601
e 79 277
e 79 279
e 79 345
e 79 347
e 79 604
e 79 541
e 79 543
e 80 162
e 80 163
e 80 348
e 80 646
e 80 602
e 80 647
e 80 106
e 80 107
e 80 142
e 80 143
e 80 270
e 80 278
e 80 280
e 80 346
e 80 603
e 80 272
e 80 542
e 80 544
e 81 377
e 81 397
e 81 165
e 81 168
e 81 301
e 81 173
e 81 176
e 81 153
e 81 400
e 81 304
e 81 568
e 81 121
e 81 565
e 81 155
e 81 124
e 81 541
e 81 379
e 81 544
e 82 566
e 82 380
e 82 166
e 82 167
e 82 567
e 82 174
e 82 175
e 82 302
e 82 303
e 82 399
e 82 154
e 82 398
e 82 122
e 82 123
e 82 156
e 82 542
e 82 543
e 82 378
e 83 465
e 83 636
e 83 485
e 83 466
e 83 633
e 83 488
e 83 273
e 83 441
e 83 276
e 83 377
e 83 443
e 83 380
e 83 445
e 83 447
e 84 635
e 84 486
e 84 487
e 84 634
e 84 467
e 84 274
e 84 275
e 84 468
e 84 378
e 84 442
e 84 379
e 84 444
e 84 446
e 84 448
e 85 357
e 85 360
e 85 461
e 85 269
e 85 527
e 85 272
e 85 569
e 85 464
e 85 313
e 85 571
e 85 316
e 85 525
e 86 572
e 86 358
e 86 359
e 86 270
e 86 271
e 86 462
e 86 463
e 86 570
e 86 314
e 86 315
e 86 528
e 86 526
e 87 497
e 87 293
e 87 296
e 87 681
e 87 221
e 87 684
e 87 223
e 87 589
e 87 592
e 87 337
e 87 340
e 87 345
e 87 348
e 87 605
e 87 607
e 87 621
e 87 623
e 87 241
e 87 243
e 87 500
e 87 505
e 87 508
e 87 253
e 87 256
e 88 294
e 88 295
e 88 242
e 88 682
e 88 683
e 88 222
e 88 224
e 88 590
e 88 591
e 88 338
e 88 339
e 88 346
e 88 347
e 88 606
e 88 608
e 88 622
e 88 624
e 88 498
e 88 499
e 88 244
e 88 506
e 88 507
e 88 254
e 88 255
e 89 129
e 89 131
e 89 197
e 89 199
e 89 329
e 89 509
e 89 332
e 89 237
e 89 239
e 89 465
e 89 217
e 89 467
e 89 405
e 89 408
e 89 185
e 89 187
e 89 512
e 89 221
e 89 219
e 89 224
e 90 130
e 90 132
e 90 198
e 90 407
e 90 200
e 90 510
e 90 330
e 90 331
e 90 238
e 90 240
e 90 466
e 90 468
e 90 511
e 90 406
e 90 220
e 90 218
e 90 186
e 90 188
e 90 222
e 90 223
e 91 393
e 91 396
e 91 529
e 91 532
e 91 533
e 91 535
e 91 677
e 91 679
e 91 297
e 91 300
e 91 309
e 91 312
e 91 569
e 91 699
e 91 572
e 91 193
e 91 196
e 91 697
e 91 213
e 91 216
e 91 605
e 91 608
e 91 493
e 91 496
e 92 394
e 92 395
e 92 530
e 92 531
e 92 534
e 92 536
e 92 678
e 92 680
e 92 298
e 92 299
e 92 310
e 92 311
e 92 570
e 92 571
e 92 700
e 92 194
e 92 195
e 92 214
e 92 215
e 92 698
e 92 606
e 92 607
e 92 494
e 92 495
e 93 385
e 93 369
e 93 680
e 93 268
e 93 453
e 93 700
e 93 455
e 93 553
e 93 169
e 93 172
e 93 371
e 93 209
e 93 265
e 93 211
e 93 388
e 93 217
e 93 677
e 93 220
e 93 697
e 93 556
e 94 386
e 94 387
e 94 554
e 94 699
e 94 454
e 94 456
e 94 370
e 94 170
e 94 171
e 94 372
e 94 698
e 94 679
e 94 555
e 94 210
e 94 212
e 94 266
e 94 218
e 94 219
e 94 267
e 94 678
e 95 620
e 95 244
e 95 525
e 95 528
e 95 657
e 95 660
e 95 277
e 95 280
e 95 289
e 95 369
e 95 292
e 95 557
e 95 560
e 95 177
e 95 180
e 95 441
e 95 188
e 95 449
e 95 452
e 95 453
e 95 456
e 95 209
e 95 185
e 95 212
e 95 613
e 95 444
e 95 229
e 95 232
e 95 617
e 95 616
e 95 621
e 95 624
e 95 241
e 95 372
e 95 381
e 95 384
e 96 526
e 96 527
e 96 558
e 96 658
e 96 659
e 96 278
e 96 279
e 96 290
e 96 291
e 96 370
e 96 371
e 96 559
e 96 178
e 96 179
e 96 442
e 96 187
e 96 450
e 96 451
e 96 454
e 96 455
e 96 615
e 96 210
e 96 211
e 96 186
e 96 443
e 96 614
e 96 230
e 96 231
e 96 618
e 96 619
e 96 622
e 96 623
e 96 242
e 96 243
e 96 382
e 96 383
e 97 428
e 97 600
e 97 409
e 97 281
e 97 325
e 97 412
e 97 285
e 97 288
e 97 284
e 97 425
e 97 328
e 97 305
e 97 308
e 97 181
e 97 184
e 97 445
e 97 448
e 97 197
e 97 200
e 97 341
e 97 344
e 97 361
e 97 364
e 97 597
e 97 125
e 97 128
e 98 283
e 98 599
e 98 282
e 98 410
e 98 411
e 98 286
e 98 287
e 98 326
e 98 199
e 98 426
e 98 427
e 98 306
e 98 307
e 98 182
e 98 183
e 98 446
e 98 447
e 98 198
e 98 327
e 98 342
e 98 343
e 98 362
e 98 363
e 98 126
e 98 127
e 98 598
e 99 129
e 99 132
e 99 536
e 99 237
e 99 240
e 99 465
e 99 468
e 99 149
e 99 152
e 99 153
e 99 533
e 99 156
e 100 130
e 100 131
e 100 535
e 100 238
e 100 239
e 100 466
e 100 467
e 100 150
e 100 151
e 100 154
e 100 155
e 100 534